NAME: tsp20-33
TYPE: TSP
DIMENSION: 20
EDGE_WEIGHT_TYPE: EUC_2D
NODE_COORD_SECTION
0 76 17
1 9 99
2 68 82
3 56 83
4 76 13
5 57 10
6 68 71
7 88 63
8 5 27
9 34 75
10 10 67
11 80 53
12 34 28
13 68 7
14 40 94
15 9 18
16 66 6
17 21 80
18 31 39
19 60 9
EOF